56984
17, 19, 44, 8, 38, 32, 41, 5, 37, 7, 20, 50, 24, 35, 51, 40, 43, 13, 3, 28, 6, 55, 26, 49, 54, 53, 34, 47, 30, 4, 18, 12, 14, 9, 2, 11, 25, 31, 1, 27, 33, 42, 45, 52, 15, 36, 46, 39, 16, 22, 10, 29, 21, 23, 48
